sat
(:max-memory         18.62
 :memory             18.42
 :nlsat-arith-var    3
 :nlsat-atoms        16
 :nlsat-bool-var     1
 :nlsat-clauses      11
 :nlsat-conflicts    2
 :nlsat-propagations 19
 :nlsat-stages       6
 :num-allocs         81685
 :rlimit-count       9005
 :time               0.01
 :total-time         0.02)
